
(set-logic ALL) 

(declare-datatype MyList ((Nil) (Cons (head Real) (tail MyList)) )) 
(declare-fun l0 () MyList) 
(declare-fun l1 () MyList) 
(declare-fun l2 () MyList) 
(declare-fun l3 () MyList) 
(declare-fun i0 () Real) 
(declare-fun i1 () Real) 
(assert (is-Cons Nil) )
(assert (is-Cons Nil) )
(assert (not (= l0 Nil)) )
(assert (and (is-Nil Nil) (= l3 Nil) (= l3 l1)) )
(assert (= l1 Nil) )
(assert (or (is-Cons l0) (= l0 Nil) (is-Nil Nil)) )
(assert (or (= l2 l2) (= l2 Nil) (= l1 Nil)) )
(assert (is-Nil l0) )
(check-sat)
